p edge 180 432
e 1 22
e 1 52
e 1 105
e 2 137
e 2 143
e 2 163
e 3 46
e 3 143
e 3 176
e 4 17
e 4 25
e 4 32
e 4 48
e 4 56
e 4 57
e 4 78
e 4 126
e 4 133
e 4 141
e 4 156
e 4 173
e 5 37
e 5 40
e 5 61
e 5 62
e 5 73
e 5 84
e 5 99
e 5 109
e 5 112
e 5 123
e 5 146
e 5 161
e 6 19
e 6 59
e 6 100
e 7 53
e 7 64
e 7 110
e 8 22
e 8 35
e 8 52
e 9 33
e 9 53
e 9 105
e 10 63
e 10 83
e 10 96
e 11 33
e 11 128
e 11 137
e 12 64
e 12 137
e 12 179
e 13 35
e 13 53
e 13 176
e 14 24
e 14 26
e 14 39
e 14 44
e 14 60
e 14 99
e 14 102
e 14 135
e 14 140
e 14 152
e 14 162
e 14 173
e 15 33
e 15 105
e 15 163
e 16 63
e 16 89
e 16 110
e 17 154
e 17 176
e 18 35
e 18 59
e 18 179
e 19 29
e 19 38
e 19 50
e 19 69
e 19 77
e 19 106
e 19 122
e 19 138
e 19 139
e 19 151
e 19 158
e 20 22
e 20 100
e 20 137
e 21 33
e 21 46
e 21 142
e 22 38
e 22 57
e 22 74
e 22 79
e 22 98
e 22 109
e 22 111
e 22 120
e 22 134
e 23 52
e 23 68
e 23 105
e 24 87
e 24 89
e 25 89
e 25 175
e 26 63
e 26 68
e 27 63
e 27 87
e 27 163
e 28 41
e 28 128
e 28 176
e 29 96
e 29 143
e 30 35
e 30 83
e 30 89
e 31 35
e 31 68
e 31 175
e 32 68
e 32 179
e 33 37
e 33 69
e 33 79
e 33 84
e 33 122
e 33 126
e 33 156
e 33 157
e 34 83
e 34 96
e 34 166
e 35 42
e 35 90
e 35 92
e 35 116
e 35 118
e 35 135
e 35 136
e 36 46
e 36 64
e 36 143
e 37 176
e 38 179
e 39 142
e 39 144
e 40 76
e 40 143
e 41 43
e 41 74
e 41 80
e 41 91
e 41 101
e 41 149
e 41 162
e 41 167
e 41 169
e 41 170
e 41 172
e 42 76
e 42 128
e 43 53
e 43 142
e 44 96
e 44 110
e 45 46
e 45 144
e 45 179
e 46 58
e 46 79
e 46 93
e 46 102
e 46 127
e 46 131
e 46 147
e 46 148
e 47 49
e 47 56
e 47 58
e 47 82
e 47 91
e 47 106
e 47 108
e 47 112
e 47 132
e 47 135
e 47 152
e 47 159
e 48 64
e 48 154
e 49 52
e 49 137
e 50 53
e 50 154
e 51 110
e 51 129
e 51 142
e 52 58
e 52 73
e 52 77
e 52 133
e 52 153
e 52 155
e 52 158
e 52 172
e 53 66
e 53 86
e 53 88
e 53 98
e 53 145
e 53 171
e 53 177
e 54 63
e 54 129
e 54 176
e 55 87
e 55 96
e 55 175
e 56 100
e 57 143
e 59 104
e 59 115
e 59 124
e 59 125
e 59 126
e 59 147
e 59 153
e 59 161
e 59 171
e 59 172
e 60 83
e 60 163
e 61 163
e 61 175
e 62 142
e 62 154
e 63 70
e 63 85
e 63 86
e 63 124
e 63 132
e 63 134
e 63 155
e 64 72
e 64 84
e 64 92
e 64 150
e 64 155
e 64 158
e 64 160
e 64 170
e 65 89
e 65 137
e 65 154
e 66 137
e 66 143
e 67 87
e 67 128
e 67 176
e 68 73
e 68 93
e 68 101
e 68 103
e 68 121
e 68 140
e 68 151
e 68 180
e 69 89
e 70 144
e 70 175
e 71 100
e 71 105
e 71 144
e 72 87
e 72 128
e 74 100
e 75 137
e 75 144
e 75 179
e 76 86
e 76 88
e 76 119
e 76 130
e 76 148
e 76 152
e 76 156
e 76 169
e 76 174
e 76 180
e 77 144
e 78 96
e 78 166
e 80 87
e 80 89
e 81 89
e 81 105
e 81 143
e 82 166
e 82 176
e 83 88
e 83 97
e 83 111
e 83 114
e 83 149
e 83 160
e 83 165
e 83 171
e 85 128
e 85 142
e 87 94
e 87 98
e 87 118
e 87 125
e 87 130
e 87 177
e 89 97
e 89 102
e 89 123
e 89 164
e 90 110
e 90 163
e 91 175
e 92 100
e 93 100
e 94 163
e 94 166
e 95 144
e 95 175
e 95 176
e 96 99
e 96 107
e 96 118
e 96 131
e 96 157
e 96 167
e 97 175
e 100 103
e 100 106
e 100 124
e 100 146
e 100 150
e 101 166
e 103 137
e 104 105
e 104 179
e 105 107
e 105 108
e 105 150
e 105 168
e 105 178
e 107 154
e 108 179
e 109 154
e 110 113
e 110 115
e 110 120
e 110 145
e 110 164
e 110 167
e 110 174
e 111 128
e 112 179
e 113 163
e 113 175
e 114 128
e 114 142
e 115 128
e 116 129
e 116 142
e 117 129
e 117 137
e 117 154
e 119 144
e 119 166
e 120 129
e 121 142
e 121 166
e 122 129
e 123 166
e 125 129
e 127 163
e 127 166
e 128 138
e 128 168
e 128 174
e 129 130
e 129 160
e 129 165
e 129 169
e 129 178
e 131 175
e 132 166
e 133 144
e 134 179
e 136 144
e 136 166
e 137 153
e 137 157
e 138 143
e 139 154
e 139 163
e 140 176
e 141 142
e 141 143
e 142 159
e 142 177
e 143 161
e 143 178
e 144 146
e 144 162
e 145 176
e 147 154
e 148 154
e 149 163
e 151 179
e 154 168
e 159 175
e 163 173
e 164 166
e 165 176
e 170 179
e 175 180
